70 0
153 100
87 139
20 56
155 60
51 137
67 125
58 205
151 98
134 141
162 146
31 52
8 100
30 4
46 26
182 21
60 143
36 147
207 33
102 151
190 209
125 61
39 125
14 122
70 104
57 189
46 68
145 45
150 78
198 23
87 94
98 163
57 2
180 63
93 118
108 104
172 150
182 80
174 45
1 51
20 77
51 40
5 140
30 20
90 107
32 65
25 181
24 100
98 67
120 137
62 179
170 105
42 97
115 27
210 200
121 152
2 203
2 77
174 32
200 40
17 37
150 36
125 27
13 178
184 10
13 20 
64 51
51 171
172 2
172 165
187 195
180 123
136 4
4 151
4 128
124 8
55 91
77 124
126 177
201 53
3 37
165 25
146 201
65 87
74 76
170 193
151 174 
160 201
207 8
86 201
101 87
190 176
195 195
60 19
78 35
7 7
18 205
208 210
199 177
200 143